Linux optc-04-03 4.15.0-88-generic #88-Ubuntu SMP Tue Feb 11 20:11:34 UTC 2020 x86_64 x86_64 x86_64 GNU/Linux

top - 21:28:33 up 3 days,  8:04,  0 users,  load average: 0,73, 0,94, 0,98
Tasks: 465 gesamt,   1 laufend, 234 schlafend,   0 gestoppt,   0 Zombie
%CPU(s): 12,4 be,  3,4 sy,  0,0 ni, 84,2 un,  0,0 wa,  0,0 hi,  0,0 si,  0,0 st
KiB Spch : 65916192 gesamt, 62482264 frei,   720840 belegt,  2713088 Puff/Cache
KiB Swap:  8388604 gesamt,  8388604 frei,        0 belegt. 64618420 verfü Spch 

  PID USER      PR  NI    VIRT    RES    SHR S  %CPU %MEM     ZEIT+ BEFEHL
29564 bzfhende  20   0   52808   4444   3508 R   7,7  0,0   0:00.04 top
    1 root      20   0  233688   9372   6836 S   0,0  0,0   0:20.74 systemd
    2 root      20   0       0      0      0 S   0,0  0,0   0:00.37 kthreadd
    4 root       0 -20       0      0      0 I   0,0  0,0   0:00.00 kworker/0:+
    5 root      20   0       0      0      0 I   0,0  0,0   0:54.46 kworker/u9+
    7 root       0 -20       0      0      0 I   0,0  0,0   0:00.00 mm_percpu_+
    8 root      20   0       0      0      0 S   0,0  0,0   0:00.25 ksoftirqd/0
    9 root      20   0       0      0      0 I   0,0  0,0   0:51.90 rcu_sched

hard time limit: 00-04:10:00
hard mem limit: 38600

SLURM jobID: 6405627

@01 /nfs/OPTI/bzfhende/instances//./miplib2010_iis-cov/instances/iis-25-80-1-cov.mps.gz ===========
-----------------------------
So 8. Mär 21:28:33 CET 2020
-----------------------------
@03 1583699313
@05 7200
SCIP version 7.0.0 [precision: 8 byte] [memory: block] [mode: optimized] [LP solver: CPLEX 12.10.0.0] [GitHash: 297532de76]
Copyright (C) 2002-2020 Konrad-Zuse-Zentrum fuer Informationstechnik Berlin (ZIB)

External codes: 
  Readline 7.0         GNU library for command line editing (gnu.org/s/readline)
  CPLEX 12.10.0.0      Linear Programming Solver developed by IBM (www.cplex.com)
  CppAD 20180000.0     Algorithmic Differentiation of C++ algorithms developed by B. Bell (www.coin-or.org/CppAD)
  ZLIB 1.2.11          General purpose compression library by J. Gailly and M. Adler (zlib.net)
  GMP 6.1.2            GNU Multiple Precision Arithmetic Library developed by T. Granlund (gmplib.org)
  bliss 0.73p          Computing Graph Automorphism Groups by T. Junttila and P. Kaski (http://www.tcs.hut.fi/Software/bliss/)

user parameter file <scip.set> not found - using default parameters

SCIP> @04 1583699313
-----------------------------
So 8. Mär 21:28:33 CET 2020
-----------------------------

=ready=
